(declare-const a Real)
(declare-const b Real)
(declare-const c Real)
(assert (= (+ a b c) 3))
(assert (> a 0))
(assert (> b 0))
(assert (> c 0))
(assert (not (<= (+ (/ 3 5) (* -1 (pow (+ a b (* -1 c)) 2) (pow (+ (pow a 2) (pow b 2) (pow c 2) (* 2 a b)) -1)) (* -2 (pow (+ (* 2 (pow a 4)) (* 2 (pow b 4)) (* 4 (pow c 4)) (* 5 (pow a 2) (pow b 2)) (* 6 (pow a 2) (pow c 2)) (* 6 (pow b 2) (pow c 2))) (/ -1 2)) (abs (+ a c (* -1 b))) (abs (+ b c (* -1 a))))) 0)))
(check-sat)
(get-model)
(exit)